NAME : pr439.tour
COMMENT : best solution found for pr439 (109373.0)
TYPE : TOUR 
DIMENSION : 439
TOUR_SECTION
0
3
4
5
6
7
8
9
10
11
12
13
14
15
16
32
33
34
35
36
37
38
41
43
39
40
42
44
45
48
46
47
49
52
53
54
55
81
80
79
78
56
57
77
85
86
76
58
59
60
75
74
61
31
29
30
62
28
27
26
25
63
72
73
109
110
111
108
107
143
145
146
147
144
184
189
223
222
221
232
233
234
235
236
220
219
218
217
216
215
214
213
242
243
244
245
246
247
248
249
209
210
211
212
201
200
199
198
197
196
195
194
193
192
179
180
181
182
191
190
183
149
150
152
153
154
155
138
139
140
141
151
142
112
113
103
104
105
106
87
71
70
88
89
90
69
68
67
66
65
64
24
22
23
21
20
19
18
17
93
92
91
101
102
114
116
119
115
117
118
120
121
100
99
94
95
97
96
132
131
130
129
127
98
124
122
123
125
126
128
133
134
135
136
137
157
158
156
178
177
176
175
174
160
159
161
162
163
164
166
165
168
167
169
170
171
172
173
203
202
204
205
206
207
208
250
252
251
254
253
315
255
256
257
258
259
260
261
262
241
240
239
238
237
267
268
269
270
271
300
301
302
303
304
305
266
265
264
263
306
307
308
309
310
311
312
313
314
316
317
318
319
320
321
322
323
324
325
326
327
328
330
329
331
332
333
334
335
336
337
294
295
296
297
298
299
272
273
274
275
276
277
278
293
338
359
369
360
361
362
363
364
365
366
367
368
377
384
385
386
387
400
399
401
403
404
416
417
427
428
430
415
414
418
419
420
413
405
406
412
411
422
421
431
432
429
426
423
425
424
409
410
408
407
402
433
437
436
435
434
438
283
343
342
341
340
372
370
371
382
381
383
393
394
392
397
396
395
398
391
390
380
374
373
379
389
388
378
376
375
344
345
347
346
348
349
350
352
351
353
354
355
357
356
358
292
291
290
289
288
287
339
286
285
284
279
231
230
224
188
187
186
229
280
281
228
282
227
226
225
185
148
84
83
82
50
51
1
2
-1
EOF